p cnf 18 37
18 0 
-18 10 -6 0 
-18 10 12 0 
-18 -10 -9 0 
-18 16 -9 0 
-18 -8 -5 -7 0 
-18 8 -1 -5 0 
-18 -17 15 -6 0 
-18 -12 -8 7 0 
-18 15 -17 -9 0 
5 16 15 0 
5 -9 17 0 
5 -15 0 
5 12 -10 0 
5 -12 -10 0 
5 9 -15 0 
6 17 0 
6 15 -17 0 
6 1 0 
-16 -15 -1 0 
9 -10 8 0 
9 10 0 
9 -10 15 0 
-16 -10 14 0 
-16 15 0 
-15 -10 0 
-14 7 8 0 
9 12 8 0 
-16 -8 1 0 
17 1 10 0 
-14 -7 0 
-14 8 -1 0 
-12 -15 1 0 
-12 1 -15 0 
-1 -8 17 0 
8 10 0 
-17 -10 0 
